416
180
504
61
378
664
1566
975
1350
616
192
54
242
689
2
352
570
684
18
1152
600
378
231
1368
522
242
801
245
1638
413
336
368
540
1280
90
992
1116
658
744
867
220
128
51
153
119
399
146
390
144
40
1246
1200
168
18
1620
106
8
840
1748
180
923
396
8
705
700
624
1296
648
200
80
34
84
270
80
648
1197
216
90
528
544
666
682
42
384
285
864
1248
1479
372
240
1105
880
246
954
456
182
445
240
615
58
